% File represents an instance of a Composite Structure problem to be solved by a CP framework
% Created on 2025-03-26 10:41:26.325
T = 58;
n = 16;
m = 24;
edges = [(2, 1),
(6, 5),
(10, 9),
(14, 13),
(3, 2),
(7, 6),
(10, 11),
(14, 15),
(3, 4),
(7, 8),
(12, 11),
(16, 15),
(1, 5),
(9, 5),
(9, 13),
(2, 6),
(10, 6),
(10, 14),
(3, 7),
(7, 11),
(11, 15),
(4, 8),
(12, 8),
(12, 16)];
counts = [|6, 22, 6, 18,
|6, 22, 6, 20,
|6, 26, 6, 20,
|4, 24, 4, 20,
|6, 22, 6, 14,
|6, 22, 6, 18,
|6, 26, 6, 18,
|4, 24, 4, 18,
|6, 22, 6, 18,
|6, 24, 6, 18,
|4, 24, 4, 18,
|4, 26, 4, 18,
|4, 22, 4, 16,
|4, 24, 4, 18,
|4, 22, 4, 14,
|4, 24, 4, 18|];
